% Total number of solutions: 208
% Total number of fixpoints: 29195
%  Counter({4: 3914, 3: 3038, 6: 3000, 5: 2670, 8: 2034, 7: 1940, 2: 1680, 10: 1590, 9: 1204, 12: 1024, 11: 924, 14: 774, 15: 610, 16: 588, 13: 568, 17: 380, 18: 362, 20: 278, 19: 274, 24: 224, 22: 224, 21: 220, 23: 172, 27: 148, 25: 148, 26: 116, 30: 98, 28: 82, 29: 72, 32: 64, 31: 60, 35: 56, 34: 52, 36: 48, 1: 46, 39: 40, 38: 36, 37: 36, 33: 34, 45: 32, 104: 24, 42: 20, 40: 20, 55: 18, 49: 18, 56: 16, 48: 16, 51: 16, 53: 16, 44: 16, 46: 16, 43: 14, 47: 12, 62: 12, 54: 12, 50: 12, 58: 12, 75: 10, 41: 10, 52: 8, 57: 8, 61: 6, 59: 4, 74: 4, 77: 4, 71: 4, 0: 4, 63: 2, 208: 1})
% Total number of uniquely-solvable fixpoints: 46
n = 6;
num_fixpoints = 46;
fixpoints = 
[|WHITE, WHITE, BLACK, WHITE, WHITE, BLACK, UNKNOWN, UNKNOWN, UNKNOWN, BLACK, UNKNOWN, UNKNOWN,
 |BLACK, BLACK, WHITE, BLACK, BLACK, WHITE, UNKNOWN, UNKNOWN, UNKNOWN, WHITE, UNKNOWN, UNKNOWN,
 |BLACK, BLACK, WHITE, BLACK, UNKNOWN, UNKNOWN, UNKNOWN, UNKNOWN, WHITE, UNKNOWN, UNKNOWN, BLACK,
 |BLACK, BLACK, WHITE, BLACK, WHITE, UNKNOWN, UNKNOWN, UNKNOWN, WHITE, UNKNOWN, UNKNOWN, BLACK,
 |BLACK, WHITE, BLACK, BLACK, WHITE, UNKNOWN, UNKNOWN, UNKNOWN, WHITE, UNKNOWN, UNKNOWN, BLACK,
 |BLACK, BLACK, WHITE, BLACK, UNKNOWN, WHITE, UNKNOWN, UNKNOWN, WHITE, UNKNOWN, UNKNOWN, BLACK,
 |UNKNOWN, UNKNOWN, BLACK, UNKNOWN, UNKNOWN, UNKNOWN, BLACK, WHITE, WHITE, BLACK, WHITE, WHITE,
 |WHITE, UNKNOWN, UNKNOWN, BLACK, UNKNOWN, UNKNOWN, BLACK, UNKNOWN, WHITE, BLACK, WHITE, WHITE,
 |WHITE, UNKNOWN, BLACK, UNKNOWN, UNKNOWN, UNKNOWN, BLACK, UNKNOWN, WHITE, BLACK, WHITE, WHITE,
 |WHITE, UNKNOWN, BLACK, UNKNOWN, UNKNOWN, BLACK, UNKNOWN, UNKNOWN, WHITE, BLACK, WHITE, WHITE,
 |WHITE, UNKNOWN, UNKNOWN, UNKNOWN, UNKNOWN, BLACK, UNKNOWN, UNKNOWN, WHITE, BLACK, WHITE, WHITE,
 |WHITE, BLACK, UNKNOWN, UNKNOWN, UNKNOWN, BLACK, UNKNOWN, UNKNOWN, WHITE, BLACK, WHITE, WHITE,
 |WHITE, UNKNOWN, UNKNOWN, BLACK, UNKNOWN, UNKNOWN, UNKNOWN, UNKNOWN, WHITE, BLACK, WHITE, WHITE,
 |WHITE, UNKNOWN, UNKNOWN, BLACK, UNKNOWN, UNKNOWN, UNKNOWN, BLACK, WHITE, BLACK, WHITE, WHITE,
 |WHITE, UNKNOWN, UNKNOWN, BLACK, UNKNOWN, UNKNOWN, UNKNOWN, BLACK, WHITE, WHITE, BLACK, WHITE,
 |BLACK, UNKNOWN, UNKNOWN, WHITE, UNKNOWN, UNKNOWN, UNKNOWN, WHITE, BLACK, BLACK, WHITE, BLACK,
 |BLACK, BLACK, WHITE, UNKNOWN, UNKNOWN, UNKNOWN, WHITE, UNKNOWN, UNKNOWN, BLACK, WHITE, BLACK,
 |BLACK, BLACK, WHITE, BLACK, UNKNOWN, UNKNOWN, WHITE, UNKNOWN, UNKNOWN, UNKNOWN, WHITE, BLACK,
 |BLACK, WHITE, UNKNOWN, UNKNOWN, UNKNOWN, WHITE, UNKNOWN, UNKNOWN, BLACK, WHITE, BLACK, BLACK,
 |BLACK, UNKNOWN, UNKNOWN, UNKNOWN, UNKNOWN, WHITE, UNKNOWN, UNKNOWN, BLACK, WHITE, BLACK, BLACK,
 |BLACK, UNKNOWN, WHITE, UNKNOWN, UNKNOWN, WHITE, UNKNOWN, UNKNOWN, BLACK, WHITE, BLACK, BLACK,
 |BLACK, UNKNOWN, UNKNOWN, WHITE, UNKNOWN, UNKNOWN, UNKNOWN, UNKNOWN, BLACK, WHITE, BLACK, BLACK,
 |BLACK, UNKNOWN, UNKNOWN, WHITE, UNKNOWN, UNKNOWN, WHITE, UNKNOWN, BLACK, WHITE, BLACK, BLACK,
 |BLACK, UNKNOWN, WHITE, UNKNOWN, UNKNOWN, UNKNOWN, WHITE, UNKNOWN, BLACK, WHITE, BLACK, BLACK,
 |UNKNOWN, UNKNOWN, WHITE, UNKNOWN, UNKNOWN, UNKNOWN, WHITE, BLACK, BLACK, WHITE, BLACK, BLACK,
 |BLACK, UNKNOWN, UNKNOWN, WHITE, UNKNOWN, UNKNOWN, UNKNOWN, WHITE, BLACK, WHITE, BLACK, BLACK,
 |BLACK, BLACK, WHITE, BLACK, UNKNOWN, UNKNOWN, WHITE, UNKNOWN, UNKNOWN, UNKNOWN, UNKNOWN, BLACK,
 |BLACK, BLACK, WHITE, BLACK, UNKNOWN, WHITE, UNKNOWN, UNKNOWN, UNKNOWN, WHITE, UNKNOWN, BLACK,
 |BLACK, BLACK, WHITE, BLACK, UNKNOWN, UNKNOWN, WHITE, UNKNOWN, UNKNOWN, WHITE, UNKNOWN, BLACK,
 |BLACK, BLACK, WHITE, UNKNOWN, UNKNOWN, UNKNOWN, WHITE, UNKNOWN, UNKNOWN, WHITE, BLACK, BLACK,
 |BLACK, BLACK, WHITE, UNKNOWN, UNKNOWN, UNKNOWN, UNKNOWN, UNKNOWN, UNKNOWN, WHITE, BLACK, BLACK,
 |BLACK, BLACK, WHITE, UNKNOWN, UNKNOWN, WHITE, UNKNOWN, UNKNOWN, UNKNOWN, WHITE, BLACK, BLACK,
 |BLACK, WHITE, BLACK, UNKNOWN, UNKNOWN, WHITE, UNKNOWN, UNKNOWN, UNKNOWN, WHITE, BLACK, BLACK,
 |WHITE, WHITE, BLACK, UNKNOWN, UNKNOWN, UNKNOWN, BLACK, UNKNOWN, UNKNOWN, WHITE, BLACK, WHITE,
 |WHITE, WHITE, BLACK, WHITE, UNKNOWN, UNKNOWN, BLACK, UNKNOWN, UNKNOWN, UNKNOWN, BLACK, WHITE,
 |WHITE, WHITE, BLACK, WHITE, UNKNOWN, UNKNOWN, BLACK, UNKNOWN, UNKNOWN, UNKNOWN, UNKNOWN, WHITE,
 |WHITE, WHITE, BLACK, WHITE, UNKNOWN, UNKNOWN, UNKNOWN, UNKNOWN, BLACK, UNKNOWN, UNKNOWN, WHITE,
 |WHITE, WHITE, BLACK, WHITE, BLACK, UNKNOWN, UNKNOWN, UNKNOWN, BLACK, UNKNOWN, UNKNOWN, WHITE,
 |WHITE, BLACK, WHITE, WHITE, BLACK, UNKNOWN, UNKNOWN, UNKNOWN, BLACK, UNKNOWN, UNKNOWN, WHITE,
 |WHITE, WHITE, BLACK, WHITE, UNKNOWN, BLACK, UNKNOWN, UNKNOWN, BLACK, UNKNOWN, UNKNOWN, WHITE,
 |WHITE, WHITE, BLACK, WHITE, UNKNOWN, BLACK, UNKNOWN, UNKNOWN, UNKNOWN, BLACK, UNKNOWN, WHITE,
 |WHITE, WHITE, BLACK, WHITE, UNKNOWN, UNKNOWN, BLACK, UNKNOWN, UNKNOWN, BLACK, UNKNOWN, WHITE,
 |WHITE, BLACK, WHITE, UNKNOWN, UNKNOWN, BLACK, UNKNOWN, UNKNOWN, UNKNOWN, BLACK, WHITE, WHITE,
 |WHITE, WHITE, BLACK, UNKNOWN, UNKNOWN, UNKNOWN, UNKNOWN, UNKNOWN, UNKNOWN, BLACK, WHITE, WHITE,
 |WHITE, WHITE, BLACK, UNKNOWN, UNKNOWN, UNKNOWN, BLACK, UNKNOWN, UNKNOWN, BLACK, WHITE, WHITE,
 |WHITE, WHITE, BLACK, UNKNOWN, UNKNOWN, BLACK, UNKNOWN, UNKNOWN, UNKNOWN, BLACK, WHITE, WHITE|];
